words_hard_train/1271.qaiger
aag 158 16 0 1 142
2
4
12
14
18
22
26
30
34
44
52
68
84
100
116
132
317
6 2 4
8 3 5
10 7 9
16 13 15
20 16 19
24 20 23
28 24 27
32 28 31
36 32 35
38 10 37
40 11 36
42 39 41
46 44 12
48 12 14
50 49 17
54 51 53
56 50 52
58 55 57
60 46 58
62 61 57
64 17 18
66 65 21
70 67 69
72 66 68
74 71 73
76 63 74
78 77 73
80 21 22
82 81 25
86 83 85
88 82 84
90 87 89
92 79 90
94 93 89
96 25 26
98 97 29
102 99 101
104 98 100
106 103 105
108 95 106
110 109 105
112 29 30
114 113 33
118 115 117
120 114 116
122 119 121
124 111 122
126 125 121
128 33 34
130 129 37
134 131 133
136 130 132
138 135 137
140 127 138
142 141 137
144 43 143
146 42 142
148 145 147
150 45 12
152 44 13
154 151 153
156 47 59
158 157 61
160 154 159
162 62 75
164 163 77
166 160 165
168 78 91
170 169 93
172 166 171
174 94 107
176 175 109
178 172 177
180 110 123
182 181 125
184 178 183
186 126 139
188 187 141
190 184 189
192 149 190
194 167 170
196 195 173
198 161 164
200 199 167
202 53 15
204 203 152
206 205 161
208 158 14
210 206 209
212 15 18
214 14 19
216 213 215
218 211 217
220 200 219
222 210 216
224 221 223
226 196 225
228 197 224
230 215 19
232 231 22
234 230 23
236 233 235
238 229 237
240 227 239
242 235 26
244 234 27
246 243 245
248 173 176
250 249 179
252 246 251
254 241 253
256 247 250
258 255 257
260 245 30
262 244 31
264 261 263
266 179 182
268 267 185
270 264 269
272 259 271
274 265 268
276 273 275
278 263 34
280 262 35
282 279 281
284 185 188
286 285 191
288 283 286
290 276 289
292 282 287
294 291 293
296 280 5
298 281 4
300 297 299
302 294 300
304 192 302
306 193 303
308 148 191
310 295 301
312 309 311
314 306 313
316 305 315
i0 1 x1[7]
i1 2 y2[7]
i2 2 y2[0]
i3 2 y2[1]
i4 2 y2[2]
i5 2 y2[3]
i6 2 y2[4]
i7 2 y2[5]
i8 2 y2[6]
i9 1 x1[0]
i10 1 x1[1]
i11 1 x1[2]
i12 1 x1[3]
i13 1 x1[4]
i14 1 x1[5]
i15 1 x1[6]
o0 bv[0]
c
simplified
  >
    subtract
      1 x1
      2 y2
    add
      2 y2
      invert
        1
