words_hard_train/1271.qaiger.qdimacs
p cnf 158 427
a 1 34 66 58 42 50 22 26 0
e 2 3 4 5 6 7 8 9 10 11 12 13 14 15 16 17 18 19 20 21 23 24 25 27 28 29 30 31 32 33 35 36 37 38 39 40 41 43 44 45 46 47 48 49 51 52 53 54 55 56 57 59 60 61 62 63 64 65 67 68 69 70 71 72 73 74 75 76 77 78 79 80 81 82 83 84 85 86 87 88 89 90 91 92 93 94 95 96 97 98 99 100 101 102 103 104 105 106 107 108 109 110 111 112 113 114 115 116 117 118 119 120 121 122 123 124 125 126 127 128 129 130 131 132 133 134 135 136 137 138 139 140 141 142 143 144 145 146 147 148 149 150 151 152 153 154 155 156 157 158 0
-1 -2 3 0
1 -3 0
2 -3 0
1 2 4 0
-1 -4 0
-2 -4 0
3 4 5 0
-3 -5 0
-4 -5 0
6 7 8 0
-6 -8 0
-7 -8 0
-8 9 10 0
8 -10 0
-9 -10 0
-10 11 12 0
10 -12 0
-11 -12 0
-12 13 14 0
12 -14 0
-13 -14 0
-14 15 16 0
14 -16 0
-15 -16 0
-16 17 18 0
16 -18 0
-17 -18 0
-5 18 19 0
5 -19 0
-18 -19 0
5 -18 20 0
-5 -20 0
18 -20 0
19 20 21 0
-19 -21 0
-20 -21 0
-22 -6 23 0
22 -23 0
6 -23 0
-6 -7 24 0
6 -24 0
7 -24 0
24 8 25 0
-24 -25 0
-8 -25 0
25 26 27 0
-25 -27 0
-26 -27 0
-25 -26 28 0
25 -28 0
26 -28 0
27 28 29 0
-27 -29 0
-28 -29 0
-23 -29 30 0
23 -30 0
29 -30 0
30 28 31 0
-30 -31 0
-28 -31 0
8 -9 32 0
-8 -32 0
9 -32 0
32 10 33 0
-32 -33 0
-10 -33 0
33 34 35 0
-33 -35 0
-34 -35 0
-33 -34 36 0
33 -36 0
34 -36 0
35 36 37 0
-35 -37 0
-36 -37 0
31 -37 38 0
-31 -38 0
37 -38 0
38 36 39 0
-38 -39 0
-36 -39 0
10 -11 40 0
-10 -40 0
11 -40 0
40 12 41 0
-40 -41 0
-12 -41 0
41 42 43 0
-41 -43 0
-42 -43 0
-41 -42 44 0
41 -44 0
42 -44 0
43 44 45 0
-43 -45 0
-44 -45 0
39 -45 46 0
-39 -46 0
45 -46 0
46 44 47 0
-46 -47 0
-44 -47 0
12 -13 48 0
-12 -48 0
13 -48 0
48 14 49 0
-48 -49 0
-14 -49 0
49 50 51 0
-49 -51 0
-50 -51 0
-49 -50 52 0
49 -52 0
50 -52 0
51 52 53 0
-51 -53 0
-52 -53 0
47 -53 54 0
-47 -54 0
53 -54 0
54 52 55 0
-54 -55 0
-52 -55 0
14 -15 56 0
-14 -56 0
15 -56 0
56 16 57 0
-56 -57 0
-16 -57 0
57 58 59 0
-57 -59 0
-58 -59 0
-57 -58 60 0
57 -60 0
58 -60 0
59 60 61 0
-59 -61 0
-60 -61 0
55 -61 62 0
-55 -62 0
61 -62 0
62 60 63 0
-62 -63 0
-60 -63 0
16 -17 64 0
-16 -64 0
17 -64 0
64 18 65 0
-64 -65 0
-18 -65 0
65 66 67 0
-65 -67 0
-66 -67 0
-65 -66 68 0
65 -68 0
66 -68 0
67 68 69 0
-67 -69 0
-68 -69 0
63 -69 70 0
-63 -70 0
69 -70 0
70 68 71 0
-70 -71 0
-68 -71 0
21 71 72 0
-21 -72 0
-71 -72 0
-21 -71 73 0
21 -73 0
71 -73 0
72 73 74 0
-72 -74 0
-73 -74 0
22 -6 75 0
-22 -75 0
6 -75 0
-22 6 76 0
22 -76 0
-6 -76 0
75 76 77 0
-75 -77 0
-76 -77 0
23 29 78 0
-23 -78 0
-29 -78 0
78 30 79 0
-78 -79 0
-30 -79 0
-77 79 80 0
77 -80 0
-79 -80 0
-31 37 81 0
31 -81 0
-37 -81 0
81 38 82 0
-81 -82 0
-38 -82 0
-80 82 83 0
80 -83 0
-82 -83 0
-39 45 84 0
39 -84 0
-45 -84 0
84 46 85 0
-84 -85 0
-46 -85 0
-83 85 86 0
83 -86 0
-85 -86 0
-47 53 87 0
47 -87 0
-53 -87 0
87 54 88 0
-87 -88 0
-54 -88 0
-86 88 89 0
86 -89 0
-88 -89 0
-55 61 90 0
55 -90 0
-61 -90 0
90 62 91 0
-90 -91 0
-62 -91 0
-89 91 92 0
89 -92 0
-91 -92 0
-63 69 93 0
63 -93 0
-69 -93 0
93 70 94 0
-93 -94 0
-70 -94 0
-92 94 95 0
92 -95 0
-94 -95 0
74 -95 96 0
-74 -96 0
95 -96 0
83 -85 97 0
-83 -97 0
85 -97 0
97 86 98 0
-97 -98 0
-86 -98 0
80 -82 99 0
-80 -99 0
82 -99 0
99 83 100 0
-99 -100 0
-83 -100 0
26 7 101 0
-26 -101 0
-7 -101 0
101 -76 102 0
-101 -102 0
76 -102 0
102 80 103 0
-102 -103 0
-80 -103 0
-79 -7 104 0
79 -104 0
7 -104 0
-103 104 105 0
103 -105 0
-104 -105 0
7 -9 106 0
-7 -106 0
9 -106 0
-7 9 107 0
7 -107 0
-9 -107 0
106 107 108 0
-106 -108 0
-107 -108 0
105 108 109 0
-105 -109 0
-108 -109 0
-100 109 110 0
100 -110 0
-109 -110 0
-105 -108 111 0
105 -111 0
108 -111 0
110 111 112 0
-110 -112 0
-111 -112 0
-98 112 113 0
98 -113 0
-112 -113 0
98 -112 114 0
-98 -114 0
112 -114 0
107 9 115 0
-107 -115 0
-9 -115 0
115 -11 116 0
-115 -116 0
11 -116 0
-115 11 117 0
115 -117 0
-11 -117 0
116 117 118 0
-116 -118 0
-117 -118 0
114 118 119 0
-114 -119 0
-118 -119 0
113 119 120 0
-113 -120 0
-119 -120 0
117 -13 121 0
-117 -121 0
13 -121 0
-117 13 122 0
117 -122 0
-13 -122 0
121 122 123 0
-121 -123 0
-122 -123 0
86 -88 124 0
-86 -124 0
88 -124 0
124 89 125 0
-124 -125 0
-89 -125 0
-123 125 126 0
123 -126 0
-125 -126 0
120 126 127 0
-120 -127 0
-126 -127 0
123 -125 128 0
-123 -128 0
125 -128 0
127 128 129 0
-127 -129 0
-128 -129 0
122 -15 130 0
-122 -130 0
15 -130 0
-122 15 131 0
122 -131 0
-15 -131 0
130 131 132 0
-130 -132 0
-131 -132 0
89 -91 133 0
-89 -133 0
91 -133 0
133 92 134 0
-133 -134 0
-92 -134 0
-132 134 135 0
132 -135 0
-134 -135 0
129 135 136 0
-129 -136 0
-135 -136 0
132 -134 137 0
-132 -137 0
134 -137 0
136 137 138 0
-136 -138 0
-137 -138 0
131 -17 139 0
-131 -139 0
17 -139 0
-131 17 140 0
131 -140 0
-17 -140 0
139 140 141 0
-139 -141 0
-140 -141 0
92 -94 142 0
-92 -142 0
94 -142 0
142 95 143 0
-142 -143 0
-95 -143 0
141 -143 144 0
-141 -144 0
143 -144 0
-138 144 145 0
138 -145 0
-144 -145 0
-141 143 146 0
141 -146 0
-143 -146 0
145 146 147 0
-145 -147 0
-146 -147 0
-140 2 148 0
140 -148 0
-2 -148 0
140 -2 149 0
-140 -149 0
2 -149 0
148 149 150 0
-148 -150 0
-149 -150 0
-147 -150 151 0
147 -151 0
150 -151 0
-96 -151 152 0
96 -152 0
151 -152 0
96 151 153 0
-96 -153 0
-151 -153 0
-74 95 154 0
74 -154 0
-95 -154 0
147 150 155 0
-147 -155 0
-150 -155 0
154 155 156 0
-154 -156 0
-155 -156 0
-153 156 157 0
153 -157 0
-156 -157 0
152 157 158 0
-152 -158 0
-157 -158 0
-158 0
